26
/Users/haiiro/scratch/phenol-dimer_B3LYP_TZ2P_GO.results/adf.rkf
C         1.72521901      0.41919789      0.14404561
C         3.51743339     -1.70074421      0.00817297
C         1.30783343     -0.85967846      0.49598460
C         3.03085119      0.65079942     -0.27508700
C         3.91991728     -0.41463070     -0.34168698
C         2.20914881     -1.91738310      0.42677341
O         0.86892397      1.50138342      0.19296713
H         0.01895914      1.23341252      0.56042542
H         0.28741403     -1.03037820      0.82149553
H         1.88248422     -2.91181756      0.70229021
H         4.21631885     -2.52476170     -0.04386467
H         4.93666410     -0.23461442     -0.66667289
H         3.33659937      1.65451243     -0.53930054
C         0.94404600      4.82024687     -1.42913669
C        -0.17773620      6.02058464     -3.69056913
C         0.10879808      4.08494790     -2.27165678
C         1.21831458      6.15699707     -1.72162762
C         0.65914032      6.74726270     -2.84659935
C        -0.44674432      4.68858264     -3.39519035
O         1.51759037      4.28696483     -0.31305277
H         1.24384528      3.36394622     -0.19133449
H        -0.09764444      3.04498510     -2.05026751
H        -1.09305132      4.10911522     -4.04273121
H        -0.61189888      6.48618487     -4.56529284
H         0.87833944      7.78494956     -3.06513522
H         1.86803332      6.71355796     -1.05898712
